50
13418

483 610
879 972
884 555
788 224
366 806
872 499
976 711
606 95
617 572
576 931
311 107
703 878
500 633
248 188
544 174
762 785
525 821
769 336
653 573
150 788
343 907
28 662
57 821
863 16
927 95
903 404
63 886
927 316
440 151
116 230
193 651
356 746
530 593
205 295
710 712
671 713
650 837
98 704
234 660
184 692
267 1000
314 367
111 561
912 482
176 817
358 940
439 307
630 665
330 8
353 588
